
(set-logic ALL) 
(set-option :produce-models true)
(set-option :dag-thresh 0) 
(declare-fun x1 () Int) 
(declare-fun L () Int) 
(declare-fun x () Int) 
(declare-fun z1 () Int) 
(declare-fun z2 () Int) 

(declare-fun predicate () Bool) 

(declare-fun dnf () Bool) 
(assert (>= x1 0)) 
(assert (>= L 0)) 
(assert (>= x 0)) 
(assert (>= z1 0)) 
(assert (>= z2 0)) 

(assert 
  (= predicate 
    (and 
      (= z1 
        (ite 
          (= x1 
            (ite 
              (>= (+ L (* (- 1) x)) 1) (+ L (* (- 1) x)) 0)) 0 1)) 
      (= z2 
        (ite 
          (>= (+ L (* (- 1) x)) 0) 0 1))))) 

(assert 
  (= dnf 
    (or 
      (and (= z1 0) 
        (= x1 (+ L (* (- 1) x))) 
        (>= (+ L (* (- 1) x)) 1) (= z2 0) 
        (>= (+ L (* (- 1) x)) 0)) 
      (and (= z1 0) 
        (= x1 (+ L (* (- 1) x))) 
        (>= (+ L (* (- 1) x)) 1) (= z2 1) 
        (< (+ L (* (- 1) x)) 0)) 
      (and (= z1 0) (= x1 0) 
        (< (+ L (* (- 1) x)) 1) (= z2 0) 
        (>= (+ L (* (- 1) x)) 0)) 
      (and (= z1 0) (= x1 0) 
        (< (+ L (* (- 1) x)) 1) (= z2 1) 
        (< (+ L (* (- 1) x)) 0)) 
      (and (= z1 1) 
        (>= (+ x1 (* (- 1) L) x) 1) (>= x1 1) (= z2 0) 
        (>= (+ L (* (- 1) x)) 0)) 
      (and (= z1 1) 
        (>= (+ x1 (* (- 1) L) x) 1) (>= x1 1) (= z2 1) 
        (< (+ L (* (- 1) x)) 0)) 
      (and (= z1 1) 
        (>= (+ x1 (* (- 1) L) x) 1) (< x1 0) (= z2 0) 
        (>= (+ L (* (- 1) x)) 0)) 
      (and (= z1 1) 
        (>= (+ x1 (* (- 1) L) x) 1) (< x1 0) (= z2 1) 
        (< (+ L (* (- 1) x)) 0)) 
      (and (= z1 1) 
        (>= (+ x1 (* (- 1) L) x) 1) 
        (>= (+ L (* (- 1) x)) 1) (= z2 0) 
        (>= (+ L (* (- 1) x)) 0)) 
      (and (= z1 1) 
        (>= (+ x1 (* (- 1) L) x) 1) 
        (>= (+ L (* (- 1) x)) 1) (= z2 1) 
        (< (+ L (* (- 1) x)) 0)) 
      (and (= z1 1) 
        (< (+ x1 (* (- 1) L) x) 0) (>= x1 1) (= z2 0) 
        (>= (+ L (* (- 1) x)) 0)) 
      (and (= z1 1) 
        (< (+ x1 (* (- 1) L) x) 0) (>= x1 1) (= z2 1) 
        (< (+ L (* (- 1) x)) 0)) 
      (and (= z1 1) 
        (< (+ x1 (* (- 1) L) x) 0) (< x1 0) (= z2 0) 
        (>= (+ L (* (- 1) x)) 0)) 
      (and (= z1 1) 
        (< (+ x1 (* (- 1) L) x) 0) (< x1 0) (= z2 1) 
        (< (+ L (* (- 1) x)) 0)) 
      (and (= z1 1) 
        (< (+ x1 (* (- 1) L) x) 0) 
        (>= (+ L (* (- 1) x)) 1) (= z2 0) 
        (>= (+ L (* (- 1) x)) 0)) 
      (and (= z1 1) 
        (< (+ x1 (* (- 1) L) x) 0) 
        (>= (+ L (* (- 1) x)) 1) (= z2 1) 
        (< (+ L (* (- 1) x)) 0)) 
      (and (= z1 1) 
        (< (+ L (* (- 1) x)) 1) (>= x1 1) (= z2 0) 
        (>= (+ L (* (- 1) x)) 0)) 
      (and (= z1 1) 
        (< (+ L (* (- 1) x)) 1) (>= x1 1) (= z2 1) 
        (< (+ L (* (- 1) x)) 0)) 
      (and (= z1 1) 
        (< (+ L (* (- 1) x)) 1) (< x1 0) (= z2 0) 
        (>= (+ L (* (- 1) x)) 0)) 
      (and (= z1 1) 
        (< (+ L (* (- 1) x)) 1) (< x1 0) (= z2 1) 
        (< (+ L (* (- 1) x)) 0)) 
      (and (= z1 1) 
        (< (+ L (* (- 1) x)) 1) 
        (>= (+ L (* (- 1) x)) 1) (= z2 0) 
        (>= (+ L (* (- 1) x)) 0)) 
      (and (= z1 1) 
        (< (+ L (* (- 1) x)) 1) 
        (>= (+ L (* (- 1) x)) 1) (= z2 1) 
        (< (+ L (* (- 1) x)) 0)))))

(assert (distinct predicate dnf))

(check-sat)
